units      real
dimension  3
boundary   p p p
atom_style full
read_data Ice-Ic-40A-box.dat
timestep 1

### TIP3P Potential Parameters ###
pair_style lj/cut/coul/long 10.0
pair_coeff 1 1*2 0.000 0.000 
pair_coeff 2 2 0.102 3.188 
bond_style  harmonic
bond_coeff  1 450 0.9572
angle_style harmonic
angle_coeff 1 55 104.52
kspace_style pppm 1.0e-5 #final npt relaxation

fix 1 all shake 1e-6 200 0 b 1 a 1
velocity all create 240 1234546 dist gaussian

neighbor 2.0 bin
neigh_modify delay 0 every 10 check yes
thermo      50
thermo_style one
thermo_modify norm no flush yes

fix 2 all npt temp 240 240 $(100.0*dt) iso 1 1 $(100.0*dt)

dump mydump all custom 5 npt_traj.dump type x y z
run 5000

write_data ice_nvt.data

#dumps
#dump waterdump all atom 5000 298K.1Bar.dump
#restart 10000 298K.1Bar.restart

#run variables
#timestep 0.5
#run 60000
