units      real
dimension  3
boundary   p p p
atom_style full
read_data Ice-Ic-40A-box.dat
timestep 1

### TIP3P Potential Parameters ###
pair_style	lj/cut/tip4p/long 2 1 1 1 0.15 12.0
pair_coeff	1 1*2 0.0 0.0
pair_coeff      2 2 0.15500 3.153600
bond_style	harmonic
bond_coeff      1 450.00  0.9572000
angle_style	harmonic
angle_coeff     1 55.00  104.5200
kspace_style	pppm/tip4p 1.0e-4

fix 1 all shake 1e-6 200 0 b 1 a 1
#fix 		1 all shake 0.0001 20 0 b 1 a 1

velocity all create 263 12345467 dist gaussian

#neighbor 2.0 bin
#neigh_modify delay 0 every 10 check yes
thermo      50
thermo_style one

fix 2 all npt temp 263 263 $(100.0*dt) iso 1 1 $(100.0*dt)

dump mydump all custom 25 tip4p_npt_traj.dump type x y z
run 20000

write_data tip4p_npt.data

#dumps
#dump waterdump all atom 5000 298K.1Bar.dump
#restart 10000 298K.1Bar.restart

#run variables
#timestep 0.5
#run 60000
